Cost: 1286
0-26-1-9-33-27-28-3-24-4-29-30-5-6-8-11-10-47-0
0-41-43-22-40-20-38-18-17-36-23-12-32-13-34-35-14-16-45-39-0
Cost: 1286
0-26-1-9-33-27-28-3-24-4-29-30-5-6-8-11-10-47-0
0-41-43-22-40-20-38-18-17-36-23-12-32-13-34-35-14-16-45-39-0
Cost: 1286
0-26-1-9-33-27-28-3-24-4-29-30-5-6-8-11-10-47-0
0-41-43-22-40-20-38-18-17-36-23-12-32-13-34-35-14-16-45-39-0
Cost: 1286
0-26-1-9-33-27-28-3-24-4-29-30-5-6-8-11-10-47-0
0-41-43-22-40-20-38-18-17-36-23-12-32-13-34-35-14-16-45-39-0
Cost: 1286
0-26-1-9-33-27-28-3-24-4-29-30-5-6-8-11-10-47-0
0-41-43-22-40-20-38-18-17-36-23-12-32-13-34-35-14-16-45-39-0
Cost: 1286
0-26-1-9-33-27-28-3-24-4-29-30-5-6-8-11-10-47-0
0-41-43-22-40-20-38-18-17-36-23-12-32-13-34-35-14-16-45-39-0
Cost: 1286
0-26-1-9-33-27-28-3-24-4-29-30-5-6-8-11-10-47-0
0-41-43-22-40-20-38-18-17-36-23-12-32-13-34-35-14-16-45-39-0
Cost: 1286
0-26-1-9-33-27-28-3-24-4-29-30-5-6-8-11-10-47-0
0-41-43-22-40-20-38-18-17-36-23-12-32-13-34-35-14-16-45-39-0
Cost: 1286
0-26-1-9-33-27-28-3-24-4-29-30-5-6-8-11-10-47-0
0-41-43-22-40-20-38-18-17-36-23-12-32-13-34-35-14-16-45-39-0
Cost: 1286
0-26-1-9-33-27-28-3-24-4-29-30-5-6-8-11-10-47-0
0-41-43-22-40-20-38-18-17-36-23-12-32-13-34-35-14-16-45-39-0
Cost: 1286
0-26-1-9-33-27-28-3-24-4-29-30-5-6-8-11-10-47-0
0-41-43-22-40-20-38-18-17-36-23-12-32-13-34-35-14-16-45-39-0
Cost: 1286
0-1-9-33-27-28-3-24-4-29-30-5-6-8-11-10-47-25-0
0-41-43-22-40-20-38-18-17-36-23-12-32-13-34-35-14-16-45-39-0
Cost: 1286
0-1-9-33-27-28-3-24-4-29-30-5-6-8-11-10-47-25-0
0-41-43-22-40-20-38-18-17-36-23-12-32-13-34-35-14-16-45-39-0
Cost: 1286
0-1-9-33-27-28-3-24-4-29-30-5-6-8-11-10-47-25-0
0-41-43-22-40-20-38-18-17-36-23-12-32-13-34-35-14-16-45-39-0
Cost: 1286
0-1-9-33-27-28-3-24-4-29-30-5-6-8-11-10-47-25-0
0-41-43-22-40-20-38-18-17-36-23-12-32-13-34-35-14-16-45-39-0
Cost: 1286
0-1-9-33-27-28-3-24-4-29-30-5-6-8-11-10-47-25-0
0-41-43-22-40-20-38-18-17-36-23-12-32-13-34-35-14-16-45-39-0
Cost: 1286
0-1-9-33-27-28-3-24-4-29-30-5-6-8-11-10-47-25-0
0-41-43-22-40-20-38-18-17-36-23-12-32-13-34-35-14-16-45-39-0
Cost: 1286
0-1-9-33-27-28-3-24-4-29-30-5-6-8-11-10-47-25-0
0-22-41-43-40-20-38-18-17-36-23-12-32-13-34-35-14-16-45-39-0
Cost: 1286
0-1-9-33-27-28-3-24-4-29-30-5-6-8-11-10-47-25-0
0-41-43-22-40-20-38-18-17-36-23-12-32-13-34-35-14-16-45-39-0
Cost: 1286
0-1-9-33-27-28-3-24-4-29-30-5-6-8-11-10-47-25-0
0-41-43-22-40-20-38-18-17-36-23-12-32-13-34-35-14-16-45-39-0
Cost: 1286
0-1-9-33-27-28-3-24-4-29-30-5-6-8-11-10-47-25-0
0-41-43-22-40-20-38-18-17-36-23-12-32-13-34-35-14-16-45-39-0
Cost: 1286
0-1-9-33-27-28-3-24-4-29-30-5-6-8-11-10-47-25-0
0-41-43-22-40-20-38-18-17-36-23-12-32-13-34-35-14-16-45-39-0
Cost: 1286
0-1-9-33-27-28-3-24-4-29-30-5-6-8-11-10-47-25-0
0-41-43-22-40-20-38-18-17-36-23-12-32-13-34-35-14-16-45-39-0
Cost: 1286
0-1-9-33-27-28-3-24-4-29-30-5-6-8-11-10-47-25-0
0-41-43-22-40-20-38-18-17-36-23-12-32-13-34-35-14-16-45-39-0
Cost: 1286
0-1-9-33-27-28-3-24-4-29-30-5-6-8-11-10-47-25-0
0-41-43-22-40-20-38-18-17-36-23-12-32-13-34-35-14-16-45-39-0
Cost: 1286
0-41-43-22-40-20-38-18-17-36-23-12-32-13-34-35-14-16-45-39-0
0-1-9-33-27-28-3-24-4-29-30-5-6-8-11-10-47-25-0
Cost: 1286
0-1-9-33-27-28-3-24-4-29-30-5-6-8-11-10-47-25-0
0-41-43-22-40-20-38-18-17-36-23-12-32-13-34-35-14-16-45-39-0
Cost: 1286
0-1-9-33-27-28-3-24-4-29-30-5-6-8-11-10-47-25-0
0-41-43-22-40-20-38-18-17-36-23-12-32-13-34-35-14-16-45-39-0
Cost: 1286
0-1-9-33-27-28-3-24-4-29-30-5-6-8-11-10-47-25-0
0-41-43-22-40-20-38-18-17-36-23-12-32-13-34-35-14-16-45-39-0
Cost: 1286
0-1-9-33-27-28-3-24-4-29-30-5-6-8-11-10-47-25-0
0-41-43-22-40-20-38-18-17-36-23-12-32-13-34-35-14-16-45-39-0
Cost: 1286
0-41-43-22-40-20-38-18-17-36-23-12-32-13-34-35-14-16-45-39-0
0-1-9-33-27-28-3-24-4-29-30-5-6-8-11-10-47-25-0
Cost: 1286
0-26-1-9-33-27-28-3-24-4-29-30-5-6-8-11-10-47-0
0-41-43-22-40-20-38-18-17-36-14-23-12-32-13-34-35-16-45-39-0
Cost: 1286
0-22-41-43-40-20-38-18-17-36-23-12-32-13-34-35-14-16-45-39-0
0-26-1-9-33-27-28-3-24-4-29-30-5-6-8-11-10-47-0
Cost: 1286
0-1-9-33-27-28-3-24-4-29-30-5-6-8-11-10-47-25-0
0-41-43-22-40-20-38-18-17-36-14-23-12-32-13-34-35-16-45-39-0
Cost: 1286
0-41-43-22-40-20-38-18-17-36-23-12-32-13-34-35-14-16-45-39-0
0-26-1-9-33-27-28-3-24-4-29-30-5-6-8-11-10-47-0
